NAME : portcgen-24-16
COMMENT : portcgen N=24, seed=16
TYPE : TSP
DIMENSION : 24
EDGE_WEIGHT_TYPE : EUC_2D
NODE_COORD_SECTION
1 -58762 -77751
2 -133592 -192657
3 273060 -68272
4 -234375 193355
5 145203 7397
6 -405774 178133
7 89866 213602
8 102373 259130
9 -103067 -122154
10 -75222 419620
11 55862 -108265
12 59826 -166575
13 -417435 145311
14 518079 -54745
15 172922 -177795
16 131682 -52968
17 208311 -59856
18 -178191 37972
19 -169799 86320
20 -95095 -209583
21 201733 57338
22 302304 -407903
23 79523 -112114
24 169511 171503
